120
150
50
50
60
47
53
47
50
50
53
54
42
43
45
53
52
47
44
59
50
50
50
41
60
49
56
56
60
46
53
48
49
44
50
59
57
49
48
52
50
56
41
53
50
45
55
60
48
53
54
60
41
52
42
56
49
49
47
54
52
56
59
50
49
47
54
50
57
44
48
42
60
42
59
44
53
50
40
47
60
45
50
52
48
45
53
41
56
43
42
43
54
53
43
47
60
59
48
53
56
44
57
49
43
53
47
50
49
51
50
42
41
52
45
53
41
41
50
44
56
56
